var 1..6: INT____00001 :: is_defined_var :: var_is_introduced;
var 1..6: INT____00002 :: is_defined_var :: var_is_introduced;
var 1..6: INT____00003 :: is_defined_var :: var_is_introduced;
var 1..6: INT____00004 :: is_defined_var :: var_is_introduced;
var 1..6: INT____00005 :: is_defined_var :: var_is_introduced;
var 1..6: INT____00006 :: is_defined_var :: var_is_introduced;
var 1..6: nsw :: output_var;
var 1..6: nt :: output_var;
var 1..6: q :: output_var;
var 1..6: sa :: output_var;
var 1..6: t;
var 1..6: v :: output_var;
var 1..6: wa :: output_var;
constraint int_max(nsw, INT____00004, INT____00005) :: defines_var(INT____00005);
constraint int_max(nt, INT____00001, INT____00002) :: defines_var(INT____00002);
constraint int_max(q, INT____00003, INT____00004) :: defines_var(INT____00004);
constraint int_max(sa, INT____00002, INT____00003) :: defines_var(INT____00003);
constraint int_max(v, INT____00005, INT____00006) :: defines_var(INT____00006);
constraint int_max(wa, wa, INT____00001) :: defines_var(INT____00001);
constraint int_ne(nsw, v);
constraint int_ne(nt, q);
constraint int_ne(nt, sa);
constraint int_ne(q, nsw);
constraint int_ne(sa, nsw);
constraint int_ne(sa, q);
constraint int_ne(sa, v);
constraint int_ne(wa, nt);
constraint int_ne(wa, sa);
solve minimize INT____00006;
